Ga  N Ga  N Ga  N Ga  N Ga  N Ga  N 
 1.0000000000000000
     9.6022999999999996    0.0000000000000000    0.0000000000000000
     0.0000000000000000   10.4349000000000007    0.0000000000000000
     0.0000000000000000    0.0000000000000000   25
  Ga   N  Ga   N  Ga   N  Ga   N  Ga   N  Ga   N
   6   6   6   6   6   6   6   6   6   6   6   6
Selective dynamics
Cartesian
  0.8000000000000000  3.9131716909999814  9.3157152520000324   F   F   F
  2.4004153410000333  3.9131716909999814 12.0876203360000130   F   F   F
  0.7999854461255677  3.8642500693058581 14.9583737771594585   T   T   T
  2.4003193180000033  1.3044466909999763 10.2399155040000203   F   F   F
  0.8000000000000000  1.3044466909999763 13.0118205879999955   F   F   F
  2.4003398198834383  1.4423875754381668 15.5449602987387543   T   T   T
  0.8000000000000000  0.6608220590000222  9.3157152520000324   F   F   F
  2.4004153410000333  0.6608220590000222 12.0876203360000130   F   F   F
  0.7999859854047565  0.6074586337134695 14.9071047024982075   T   T   T
  2.4003193180000033  3.2695470590000246 10.2399155040000203   F   F   F
  0.8000000000000000  3.2695470590000246 13.0118205879999955   F   F   F
  2.4001934516064090  3.2474664117489249 15.7773944494763310   T   T   T
  4.0007346589999671  3.9131716909999814  9.3157152520000324   F   F   F
  5.6011499999999970  3.9131716909999814 12.0876203360000130   F   F   F
  4.0006934217428070  3.8640113182363782 14.9585447548174741   T   T   T
  5.6011499999999970  1.3044466909999763 10.2399155040000203   F   F   F
  4.0007346589999671  1.3044466909999763 13.0118205879999955   F   F   F
  5.6011220867611931  1.4421082405688321 15.5448619532142374   T   T   T
  4.0007346589999671  0.6608220590000222  9.3157152520000324   F   F   F
  5.6011499999999970  0.6608220590000222 12.0876203360000130   F   F   F
  4.0006653756662027  0.6072430827381190 14.9071639087702810   T   T   T
  5.6011499999999970  3.2695470590000246 10.2399155040000203   F   F   F
  4.0007346589999671  3.2695470590000246 13.0118205879999955   F   F   F
  5.6011251195004466  3.2472055062165461 15.7771234988059348   T   T   T
  7.2015653410000295  3.9131716909999814  9.3157152520000324   F   F   F
  8.8018846589999633  3.9131716909999814 12.0876203360000130   F   F   F
  7.2015600599935645  3.8640115737399756 14.9585388004366866   T   T   T
  8.8018846589999633  1.3044466909999763 10.2399155040000203   F   F   F
  7.2014693179999991  1.3044466909999763 13.0118205879999955   F   F   F
  8.8019187811367683  1.4423824438250534 15.5449325464927917   T   T   T
  7.2015653410000295  0.6608220590000222  9.3157152520000324   F   F   F
  8.8018846589999633  0.6608220590000222 12.0876203360000130   F   F   F
  7.2015799968875545  0.6072437422259871 14.9071677098315298   T   T   T
  8.8018846589999633  3.2695470590000246 10.2399155040000203   F   F   F
  7.2014693179999991  3.2695470590000246 13.0118205879999955   F   F   F
  8.8020657112199086  3.2474618213206101 15.7773660679938619   T   T   T
  0.8000000000000000  9.1306216909999822  9.3157152520000324   F   F   F
  2.4004153410000333  9.1306216909999822 12.0876203360000130   F   F   F
  0.7999875093551019  9.0816814618546484 14.9583723035325082   T   T   T
  2.4003193180000033  6.5218966909999816 10.2399155040000203   F   F   F
  0.8000000000000000  6.5218966909999816 13.0118205879999955   F   F   F
  2.4003407903621907  6.6598962452454353 15.5449787844146581   T   T   T
  0.8000000000000000  5.8782720590000288  9.3157152520000324   F   F   F
  2.4004153410000333  5.8782720590000288 12.0876203360000130   F   F   F
  0.7999875768821970  5.8248984289558026 14.9071038675679848   T   T   T
  2.4003193180000033  8.4868927099999958 10.2399155040000203   F   F   F
  0.8000000000000000  8.4868927099999958 13.0118205879999955   F   F   F
  2.4001995452579301  8.4648698919716683 15.7773637294123628   T   T   T
  4.0007346589999671  9.1306216909999822  9.3157152520000324   F   F   F
  5.6011499999999970  9.1306216909999822 12.0876203360000130   F   F   F
  4.0006997233617820  9.0814406931094513 14.9585452920841089   T   T   T
  5.6011499999999970  6.5218966909999816 10.2399155040000203   F   F   F
  4.0007346589999671  6.5218966909999816 13.0118205879999955   F   F   F
  5.6011276914722163  6.6596144398084602 15.5448800625134069   T   T   T
  4.0007346589999671  5.8782720590000288  9.3157152520000324   F   F   F
  5.6011499999999970  5.8782720590000288 12.0876203360000130   F   F   F
  4.0006661702843429  5.8246830413100943 14.9071536582617146   T   T   T
  5.6011499999999970  8.4868927099999958 10.2399155040000203   F   F   F
  4.0007346589999671  8.4868927099999958 13.0118205879999955   F   F   F
  5.6011264521880344  8.4646061834489696 15.7771233915729265   T   T   T
  7.2015653410000295  9.1306216909999822  9.3157152520000324   F   F   F
  8.8018846589999633  9.1306216909999822 12.0876203360000130   F   F   F
  7.2015533575584723  9.0814421013906657 14.9585410953781803   T   T   T
  8.8018846589999633  6.5218966909999816 10.2399155040000203   F   F   F
  7.2014693179999991  6.5218966909999816 13.0118205879999955   F   F   F
  8.8019219720091240  6.6598964349758942 15.5449543532767986   T   T   T
  7.2015653410000295  5.8782720590000288  9.3157152520000324   F   F   F
  8.8018846589999633  5.8782720590000288 12.0876203360000130   F   F   F
  7.2015907911718298  5.8246832447241514 14.9071523239073276   T   T   T
  8.8018846589999633  8.4868927099999958 10.2399155040000203   F   F   F
  7.2014693179999991  8.4868927099999958 13.0118205879999955   F   F   F
  8.8020627514749208  8.4648706707765076 15.7773380682044380   T   T   T
