SYSTEM = opt-3
ISTART  = 1
ICHARG = 0

ISPIN = 2
ENCUT = 400
ISMEAR  = 0  !for metal system use ismear=1
SIGMA = 0.05  ! default

GGA = PE
IVDW= 11  ! DFT-D3

LREAL = Auto  !should be neglected in high precision
EDIFF = 1e-5
EDIFFG= -0.01
PREC = N
ALGO = F
NPAR=4

NELM = 200
NELMIN = 3
NELMDL = -10

NSW = 500
POTIM = 0.25
IBRION = 2  !low_accuracy use qn
ISIF=2

IDIPOL=3
LDIPOL=.TRUE.

