O  Ti O  Ti Rh
 1.0000000000000000
    11.9902680382192521    0.0000000000000000    0.0000000000000000
     0.0000000000000000   13.1151602652946266    0.0000000000000000
     0.0000000000000000    0.0000000000000000   32.3990464525742539
 O   Ti  O   Ti  Rh 
 104  50  23  14   2
Selective dynamics
Cartesian
  0.0000000000000000  9.8363701989709700  0.0000000000000000   F   F   F
  9.0133101855839719  3.2845000189280209  6.5719158828665556   T   T   T
  8.9981860542381504  9.8340947765537070  6.5867021561299550   T   T   T
  0.0209732871456133  3.2751553967818876  6.5897388403543458   T   T   T
  1.5054202000586692  7.8659465042471757  7.8694805504458722   T   T   T
  7.5069778673563041 11.8194163522020013  7.8487834952132065   T   T   T
  4.5049518851056476  7.8647974736439510  7.8723522462350068   T   T   T
 10.4927181164511598  1.3016297657856131  7.8545250521018701   T   T   T
  0.0045034691710676  9.8426865144540834  6.5904427297031098   T   T   T
 10.5054897670425529  7.8740495640351194  7.8724163623328725   T   T   T
 10.4872985268813093 11.8222175834242496  7.8543641650694802   T   T   T
  7.4932287581550607  7.8721898572707234  7.8746823625808320   T   T   T
  1.5021232489143290  1.2854792996301088  7.8707842485833099   T   T   T
  7.5154304063813795  5.2782098167353935  7.8359888815808523   T   T   T
 10.4972301079097896  5.2683619217725930  7.8613711856559734   T   T   T
  4.4940659116622586  5.2653087108205341  7.8589408596413950   T   T   T
  4.5029715227665328  1.2880804837715070  7.8887027431476833   T   T   T
  1.4956243324828600 11.8169343369204611  7.8600487674061403   T   T   T
  7.4935394066156258  1.3057463995646215  7.8636061330489193   T   T   T
  3.0006236348937274  9.8406344451539294  6.5891668197533031   T   T   T
  5.9951174162764538  9.8436356933362426  6.5884337878725381   T   T   T
  7.4939175238870330 11.1177083257725879  4.5601281931253679   F   F   F
  1.4987835047774065 11.1177083257725879  4.5601281931253679   F   F   F
  4.4963505143322191  4.5601281931252746  4.5601281931253679   F   F   F
 10.4914845334418452  4.5601281931252746  4.5601281931253679   F   F   F
  7.4939175238870330  1.9974519395220394  4.5601281931253679   F   F   F
 10.4914845334418452 11.1177083257725879  4.5601281931253679   F   F   F
  7.4939175238870330  8.5550320721693520  4.5601281931253679   F   F   F
  3.0065980731744006  3.2746644051554932  6.5924965803228073   T   T   T
  8.9927010286644382  0.0000000000000000  5.8414663199269743   F   F   F
  2.9975670095548130  0.0000000000000000  5.8414663199269743   F   F   F
  0.0000000000000000  6.5575801326473124  5.8414663199269743   F   F   F
  0.0000000000000000  0.0000000000000000  5.8414663199269743   F   F   F
  5.9951340191096252  0.0000000000000000  5.8414663199269743   F   F   F
  5.9951340191096252  6.5575801326473124  5.8414663199269743   F   F   F
  5.9837871953559603  3.2669841016985051  6.5779925085477284   T   T   T
  2.9975670095548130  6.5575801326473124  5.8414663199269743   F   F   F
 10.4914845334418452  1.9974519395220394  4.5601281931253679   F   F   F
  1.5081658519063605  5.2627855536363359  7.8662022094382431   T   T   T
  8.9927441611718955  9.8600239793974751  9.1562718589871643   T   T   T
  4.4954005333917575 11.8162406139449043  7.8604867102543468   T   T   T
  2.9917898206979312  3.2427494502817700  9.1658320743434096   T   T   T
  6.0442290201815103  3.3939115699363152  9.1006554449525723   T   T   T
  9.0036234626519231  3.2830814084612800  9.1272883330209833   T   T   T
  0.0103177034869556  9.8579464588141814  9.1648053950478197   T   T   T
  2.9995538311012684  9.8354503023558379  9.1589250049118220   T   T   T
  5.9987440956470675  9.8549065071208126  9.1566922620497095   T   T   T
  0.0026271186265334  3.2918969322673197  9.1484957913129534   T   T   T
 11.9238974249718090 -0.0031461943255049  9.8345573899782721   T   T   T
  3.0182610324140171  6.5482612651926759  9.8750449974746868   T   T   T
  5.9974908693682973  6.5317213459957042  9.8694421380562343   T   T   T
  9.0066019169024205  6.5846653423418564  9.8637248834653271   T   T   T
  2.9750878298833969 -0.0690930120383358  9.8830719871056658   T   T   T
  0.0161544061530828  6.5462584982833683  9.8653475555799197   T   T   T
  8.9789544852565140  0.0078875324951025  9.8822600978464461   T   T   T
  6.0476074077707986 -0.0580481337741219  9.8567168691639715   T   T   T
  7.4939175238870330  4.5601281931252746  4.5601281931253679   F   F   F
  8.9927010286644382  6.5575801326473124  5.8414663199269743   F   F   F
  4.4963505143322191  1.9974519395220394  4.5601281931253679   F   F   F
  0.0000000000000000  9.8363701989709700  2.5626762536032164   F   F   F
  8.9927010286644382  9.8363701989709700  2.5626762536032164   F   F   F
  5.9951340191096252  3.2787900663236567  2.5626762536032164   F   F   F
  8.9927010286644382  3.2787900663236567  2.5626762536032164   F   F   F
  5.9951340191096252  9.8363701989709700  2.5626762536032164   F   F   F
  0.0000000000000000  3.2787900663236567  2.5626762536032164   F   F   F
  2.9975670095548130  3.2787900663236567  2.5626762536032164   F   F   F
  7.4939175238870330  7.8389182594489313  1.2813381268016100   F   F   F
  1.4987835047774065  1.9974519395220394  4.5601281931253679   F   F   F
  7.4939175238870330  1.2813381268016173  1.2813381268016100   F   F   F
  1.4987835047774065  5.2762420058456954  1.2813381268016100   F   F   F
  4.4963505143322191  1.2813381268016173  1.2813381268016100   F   F   F
  1.4987835047774065  1.2813381268016173  1.2813381268016100   F   F   F
  7.4939175238870330  5.2762420058456954  1.2813381268016100   F   F   F
  2.9975670095548130  9.8363701989709700  2.5626762536032164   F   F   F
 10.4914845334418452  1.2813381268016173  1.2813381268016100   F   F   F
  4.4963505143322191  7.8389182594489313  1.2813381268016100   F   F   F
  1.4987835047774065 11.8338221384930087  1.2813381268016100   F   F   F
  4.4963505143322191 11.8338221384930087  1.2813381268016100   F   F   F
  4.4963505143322191  5.2762420058456954  1.2813381268016100   F   F   F
 10.4914845334418452  7.8389182594489313  1.2813381268016100   F   F   F
  7.4939175238870330 11.8338221384930087  1.2813381268016100   F   F   F
  1.4987835047774065  7.8389182594489313  1.2813381268016100   F   F   F
  2.9975670095548130  9.8363701989709700  0.0000000000000000   F   F   F
  2.9975670095548130  3.2787900663236567  0.0000000000000000   F   F   F
  8.9927010286644382  9.8363701989709700  0.0000000000000000   F   F   F
  5.9951340191096252  3.2787900663236567  0.0000000000000000   F   F   F
  0.0000000000000000  3.2787900663236567  0.0000000000000000   F   F   F
  8.9927010286644382  3.2787900663236567  0.0000000000000000   F   F   F
  5.9951340191096252  9.8363701989709700  0.0000000000000000   F   F   F
 10.4914845334418452  5.2762420058456954  1.2813381268016100   F   F   F
  5.9951340191096252  0.0000000000000000  3.2787900663237575   F   F   F
 10.4914845334418452 11.8338221384930087  1.2813381268016100   F   F   F
  5.9951340191096252  6.5575801326473124  3.2787900663237575   F   F   F
  1.4987835047774065  8.5550320721693520  4.5601281931253679   F   F   F
  4.4963505143322191  8.5550320721693520  4.5601281931253679   F   F   F
  4.4963505143322191 11.1177083257725879  4.5601281931253679   F   F   F
 10.4914845334418452  8.5550320721693520  4.5601281931253679   F   F   F
  1.4987835047774065  4.5601281931252746  4.5601281931253679   F   F   F
  0.0000000000000000  6.5575801326473124  3.2787900663237575   F   F   F
  0.0000000000000000  0.0000000000000000  3.2787900663237575   F   F   F
  8.9927010286644382  6.5575801326473124  3.2787900663237575   F   F   F
  8.9927010286644382  0.0000000000000000  3.2787900663237575   F   F   F
  2.9975670095548130  6.5575801326473124  3.2787900663237575   F   F   F
  2.9975670095548130  0.0000000000000000  3.2787900663237575   F   F   F
 11.9831503925361318  0.0087077299412179  7.8842859215097167   T   T   T
  1.4987835047774065  3.2787900663236567  1.2813381268016100   F   F   F
  4.4963505143322191  3.2787900663236567  1.2813381268016100   F   F   F
  4.4963505143322191  6.5575801326473124  4.5601281931253679   F   F   F
  1.4987835047774065  6.5575801326473124  4.5601281931253679   F   F   F
  1.4987835047774065  0.0000000000000000  4.5601281931253679   F   F   F
  7.4939175238870330  3.2787900663236567  1.2813381268016100   F   F   F
  5.9951340191096252  6.5575801326473124  1.2813381268016100   F   F   F
  3.0699751990324851  3.1280625125440240 11.1297940222643899   T   T   T
 10.4914845334418452  0.0000000000000000  4.5601281931253679   F   F   F
  3.0147804358071553  9.8205659438972290 11.0096518927070584   T   T   T
  0.0000000000000000  9.8363701989709700  4.5601281931253679   F   F   F
  7.4953144322329601  3.2984882760029191  7.7539544440010966   T   T   T
  7.4973226685730703  9.8360574548350126  7.7908511802672047   T   T   T
  6.0073395976848607 -0.0026606585317495  7.9233401058926010   T   T   T
 10.5165558967651069  3.2962482244043567  7.7757021048167951   T   T   T
 11.9993131477097297  6.5577342287655176  7.9614348908523427   T   T   T
  0.0000000000000000  0.0000000000000000  1.2813381268016100   F   F   F
  0.0000000000000000  6.5575801326473124  1.2813381268016100   F   F   F
  2.9975670095548130  6.5575801326473124  1.2813381268016100   F   F   F
 10.4943761936070814  9.8388932523459953  7.7955101126743243   T   T   T
  8.9932948150627556  0.0120374337141890  7.9479514354151117   T   T   T
  9.0010706691548350  6.5710065369501756  7.9600138910009202   T   T   T
  1.5035422025297129  9.8262530817540945  7.7938831489227187   T   T   T
  3.0070371952460322  6.5544951767114163  7.9672454316343932   T   T   T
  6.0032217412953894  6.5533691704567190  7.9622655979882664   T   T   T
  1.5383121798294423  3.2872916952490110  7.8358723139862372   T   T   T
  4.4835112541072792  3.2829217698460886  7.8367476371876217   T   T   T
 10.4914845334418452  9.8363701989709700  1.2813381268016100   F   F   F
  5.9951340191096252  0.0000000000000000  1.2813381268016100   F   F   F
  7.4939175238870330  9.8363701989709700  1.2813381268016100   F   F   F
  8.9927010286644382  9.8363701989709700  4.5601281931253679   F   F   F
 10.4914845334418452  3.2787900663236567  1.2813381268016100   F   F   F
  8.9927010286644382  6.5575801326473124  1.2813381268016100   F   F   F
  8.9927010286644382  0.0000000000000000  1.2813381268016100   F   F   F
 10.4914845334418452  6.5575801326473124  4.5601281931253679   F   F   F
  4.4963505143322191  0.0000000000000000  4.5601281931253679   F   F   F
  2.9975670095548130  3.2787900663236567  4.5601281931253679   F   F   F
  5.9951340191096252  3.2787900663236567  4.5601281931253679   F   F   F
  5.9951340191096252  9.8363701989709700  4.5601281931253679   F   F   F
  2.9975670095548130  9.8363701989709700  4.5601281931253679   F   F   F
  7.4939175238870330  6.5575801326473124  4.5601281931253679   F   F   F
  8.9927010286644382  3.2787900663236567  4.5601281931253679   F   F   F
  1.4987835047774065  9.8363701989709700  1.2813381268016100   F   F   F
  2.9994909582898068 -0.0097384221191979  7.9067749510202630   T   T   T
  2.9975670095548130  0.0000000000000000  1.2813381268016100   F   F   F
  4.4963505143322191  9.8363701989709700  1.2813381268016100   F   F   F
  7.4939175238870330  0.0000000000000000  4.5601281931253679   F   F   F
  4.5002942719739192  9.8279691005140091  7.7958992574560551   T   T   T
  0.0000000000000000  3.2787900663236567  4.5601281931253679   F   F   F
  3.0128228558911627  6.5689142361690225 12.4524303354565227   T   T   T
 10.4882697224624870 11.0734812016931805 11.3170833267402244   T   T   T
  4.5156426462589012  8.6274634825380723 11.3360225692046406   T   T   T
  7.5128954179376031  2.0769619485541249 11.2991390241524510   T   T   T
  7.5656719470490792  4.5439143205899359 11.3163078327466078   T   T   T
 10.5025921265335231  8.6304801080039866 11.3175420264983142   T   T   T
  4.5118599040181531  4.4541424021269833 11.4292072498713111   T   T   T
 10.4969325438649737  2.0694815107648177 11.3266225339615243   T   T   T
  1.5028144112748190  8.6139249150538078 11.3101084679240511   T   T   T
  7.4928374365555515 11.0905083416260055 11.3510182400209398   T   T   T
  4.7232435764835330  2.0191364813569876 10.9258199491789885   T   T   T
  4.4792491766598124 11.1028159641714232 11.3066544948323671   T   T   T
  6.0028527928828135  0.0696861636526949 12.4860149590875089   T   T   T
  6.0151960745164468  6.5685895727544112 12.4449697584384431   T   T   T
  9.0119376806950875  6.6068107217762773 12.4461645250334705   T   T   T
  0.0184736607580049  6.5626619208087229 12.4391683375127258   T   T   T
 -0.0213834712007154 -0.0631052922302104 12.4256504419364013   T   T   T
 10.4915339603684661  4.5325978616868774 11.3158527576947936   T   T   T
  1.3640933370432609  1.9899189361454497 11.3238009501867705   T   T   T
  1.5299992950208250 11.0700086701495604 11.3828012930365023   T   T   T
  1.5413105530408679  4.4702706025534242 11.3546629835462447   T   T   T
  7.4890211919753504  8.6397028187559783 11.3130165160570080   T   T   T
  8.9686959351790367  0.0210945695663905 12.4673653945086400   T   T   T
 10.4558100457335108  0.0294111490571109 11.3661367699348812   T   T   T
  6.0488132783347082  3.3618515912440485 10.9563586219099118   T   T   T
  8.9919573866889984  9.8667770627744442 11.0050988624996204   T   T   T
  7.5198933071872602  0.0370678640566453 11.3057396972842668   T   T   T
  0.0058668550697584  3.3529354633770758 11.0012295509372944   T   T   T
  4.5132879419507708  6.5323936727994649 11.3611499817659514   T   T   T
  7.5192163192949675  6.5826398419337577 11.3428906716587115   T   T   T
  4.4989783020970497  0.0546839301803593 11.1714589505749711   T   T   T
  5.9970237959509936  9.8691842367914813 11.0070379912925951   T   T   T
  0.0018701182117251  9.8286792164988128 11.0133374089064962   T   T   T
  1.5227606212232454  6.5176161229709937 11.3446109601725098   T   T   T
 10.5073059203692605  6.5759243022304181 11.3422450659233878   T   T   T
  9.0151933335606831  3.2802793888473647 10.9759009456627741   T   T   T
  1.3546024208298995 -0.0762665305741997 11.1554541555997826   T   T   T
  2.7499495693714433  1.2154328887451689 12.7483593821325663   T   T   T
  4.5925320216707401 -0.0217079276985748 13.7867327260424641   T   T   T
