KPT-Resolved Value to Generate K-Mesh: 0.040
0
Gamma
1   1   1
0.0  0.0  0.0
