SYSTEM = opt-2
EDIFF  = 2e-4
EDIFFG = -0.08
IBRION = 2
ISIF   = 2
NSW    = 200
NELM   = 200
NELMIN = 2
NELMDL = -10
ISMEAR = 0
SIGMA  = 0.05
POTIM  = 0.5
ISPIN  = 2
IVDW   = 11
ISTART = 1
ICHARG = 0

NPAR   = 4
GGA    = PE
ALGO   = F
LREAL  = A
PREC = M

IDIPOL = 3
LDIPOL=.TRUE.

