Ga  N 
 1.0000000000000000
     9.6022999999999996    0.0000000000000000    0.0000000000000000
     0.0000000000000000   10.4349000000000007    0.0000000000000000
     0.0000000000000000    0.0000000000000000   25.0000000000000000
  Ga   N
  36  36
Selective dynamics
Cartesian
  7.2015513644195162  9.0823460771384088  6.6572136623257094   T   T   T
  8.8018846589999651  9.1306216909999769  3.7876203360000393   F   F   F
  7.2015653410000313  9.1306216909999769  1.0157152520000485   F   F   F
  0.7999999999999988  6.5218966909999763  4.7118205880000232   F   F   F
  7.2015653410000313  3.9131716909999752  1.0157152520000485   F   F   F
  8.8018846589999651  3.9131716909999752  3.7876203360000393   F   F   F
  7.2015567856085179  3.8649121945046994  6.6572232701769583   T   T   T
  8.8018846589999651  1.3044466909999755  1.9399155040000395   F   F   F
  7.2014693180000009  1.3044466909999755  4.7118205880000232   F   F   F
  8.8019291225509928  1.4422022338142160  7.2436292188944442   T   T   T
  2.4003193180000015  6.5218966909999763  1.9399155040000395   F   F   F
  0.8000364802710880  9.0825187035553849  6.6570620518640151   T   T   T
  2.4004153410000324  9.1306216909999769  3.7876203360000393   F   F   F
  0.7999999999999988  9.1306216909999769  1.0157152520000485   F   F   F
  8.8018846589999651  6.5218966909999763  1.9399155040000395   F   F   F
  5.6011015362317815  1.4419787947703875  7.2435734718399374   T   T   T
  4.0007346589999662  1.3044466909999755  4.7118205880000232   F   F   F
  0.7999999999999988  3.9131716909999752  1.0157152520000485   F   F   F
  2.4004153410000324  3.9131716909999752  3.7876203360000393   F   F   F
  0.8000348758800309  3.8650839478655143  6.6570758576024680   T   T   T
  2.4003193180000015  1.3044466909999755  1.9399155040000395   F   F   F
  0.7999999999999988  1.3044466909999755  4.7118205880000232   F   F   F
  2.4003469002721807  1.4422106783406194  7.2436931920839687   T   T   T
  4.0007346589999662  9.1306216909999769  1.0157152520000485   F   F   F
  5.6011499999999987  9.1306216909999769  3.7876203360000393   F   F   F
  4.0006509647842527  9.0823489622924498  6.6571882962555442   T   T   T
  5.6011499999999987  6.5218966909999763  1.9399155040000395   F   F   F
  2.4003490734094295  6.6596588149502862  7.2436959708065167   T   T   T
  8.8019321345689310  6.6596563059700715  7.2436330675521408   T   T   T
  7.2014693180000009  6.5218966909999763  4.7118205880000232   F   F   F
  4.0007346589999662  3.9131716909999752  1.0157152520000485   F   F   F
  5.6011499999999987  3.9131716909999752  3.7876203360000393   F   F   F
  4.0006456404571811  3.8649163518363974  6.6571988293368065   T   T   T
  5.6011499999999987  1.3044466909999755  1.9399155040000395   F   F   F
  5.6011056756464859  6.6594244399992508  7.2435755942496911   T   T   T
  4.0007346589999662  6.5218966909999763  4.7118205880000232   F   F   F
  4.0007346589999662  8.4868927099999905  4.7118205880000232   F   F   F
  4.0007346589999662  5.8782720590000226  1.0157152520000485   F   F   F
  5.6011499999999987  5.8782720590000226  3.7876203360000393   F   F   F
  4.0007071825446934  5.8247152670585587  6.6090813423503150   T   T   T
  5.6011499999999987  8.4868927099999905  1.9399155040000395   F   F   F
  5.6010449496558650  8.4653377805866796  7.4770283435740694   T   T   T
  7.2015653410000313  5.8782720590000226  1.0157152520000485   F   F   F
  8.8018846589999651  5.8782720590000226  3.7876203360000393   F   F   F
  7.2015745684393773  5.8247146471857194  6.6090824178833341   T   T   T
  8.8018846589999651  8.4868927099999905  1.9399155040000395   F   F   F
  2.4003140428504834  8.4656405916203106  7.4773305683055273   T   T   T
  8.8020307120861521  3.2481053295033724  7.4771948285287735   T   T   T
  2.4003193180000015  8.4868927099999905  1.9399155040000395   F   F   F
  0.7999999999999988  0.6608220590000222  1.0157152520000485   F   F   F
  2.4004153410000324  0.6608220590000222  3.7876203360000393   F   F   F
  0.7999605347579228  0.6073787300140565  6.6090254060049567   T   T   T
  2.4003193180000015  3.2695470590000228  1.9399155040000395   F   F   F
  0.7999999999999988  3.2695470590000228  4.7118205880000232   F   F   F
  2.4003127364950338  3.2481840252230558  7.4773432262330193   T   T   T
  4.0007346589999662  0.6608220590000222  1.0157152520000485   F   F   F
  5.6011499999999987  0.6608220590000222  3.7876203360000393   F   F   F
  4.0007052073814400  0.6072540846525013  6.6090703938999766   T   T   T
  5.6011499999999987  3.2695470590000228  1.9399155040000395   F   F   F
  4.0007346589999662  3.2695470590000228  4.7118205880000232   F   F   F
  5.6010449427146067  3.2478839461393143  7.4770200543656529   T   T   T
  7.2015653410000313  0.6608220590000222  1.0157152520000485   F   F   F
  8.8018846589999651  0.6608220590000222  3.7876203360000393   F   F   F
  7.2015648170722741  0.6072484314543641  6.6090698118189977   T   T   T
  8.8018846589999651  3.2695470590000228  1.9399155040000395   F   F   F
  7.2014693180000009  3.2695470590000228  4.7118205880000232   F   F   F
  7.2014693180000009  8.4868927099999905  4.7118205880000232   F   F   F
  0.7999999999999988  5.8782720590000226  1.0157152520000485   F   F   F
  2.4004153410000324  5.8782720590000226  3.7876203360000393   F   F   F
  0.7999612735211008  5.8248393652042969  6.6090408055738905   T   T   T
  0.7999999999999988  8.4868927099999905  4.7118205880000232   F   F   F
  8.8020308124144844  8.4655665189733078  7.4771845441678835   T   T   T
